% Instancia problemática tipo: RESTRICCIONES_CONFLICTIVAS
% Razón: Demandas requieren capacidades conflictivas
% Demanda total: 4438.08
% Suministro total: 4659.98
% Factor holgura: 1.05

nP = 2;
nT = 3;
nC1 = 4;
nC2 = 6;
nA = 42;
nD = 3;

arc_from = [1, 1, 1, 2, 2, 2, 3, 3, 3, 3, 4, 4, 4, 4, 5, 5, 5, 5, 6, 6, 6, 6, 6, 6, 7, 7, 7, 7, 7, 7, 8, 8, 8, 8, 8, 8, 9, 9, 9, 9, 9, 9];
arc_to = [3, 4, 5, 3, 4, 5, 6, 7, 8, 9, 6, 7, 8, 9, 6, 7, 8, 9, 10, 11, 12, 13, 14, 15, 10, 11, 12, 13, 14, 15, 10, 11, 12, 13, 14, 15, 10, 11, 12, 13, 14, 15];

supply = [2329.99, 2329.99, 0, 0, 0, 0, 0, 0, 0, 0, 0, 0, 0, 0, 0];
demand = [0, 0, 0, 0, 0, 879.33, 1036.84, 1132.23, 897.14, 84.86, 65.08, 84.21, 90.28, 89.81, 78.30];

max_capacity = [795, 1414, 3181];

install_cost = array2d(1..nA, 1..nD, [
  20, 24, 32,
  50, 62, 78,
  20, 24, 32,
  50, 62, 78,
  20, 24, 32,
  50, 62, 78,
  20, 24, 32,
  50, 62, 78,
  20, 24, 32,
  50, 62, 78,
  20, 24, 32,
  50, 62, 78,
  20, 24, 32,
  50, 62, 78,
  20, 24, 32,
  50, 62, 78,
  20, 24, 32,
  50, 62, 78,
  20, 24, 32,
  50, 62, 78,
  20, 24, 32,
  50, 62, 78,
  20, 24, 32,
  50, 62, 78,
  20, 24, 32,
  50, 62, 78,
  20, 24, 32,
  50, 62, 78,
  20, 24, 32,
  50, 62, 78,
  20, 24, 32,
  50, 62, 78,
  20, 24, 32,
  50, 62, 78,
  20, 24, 32,
  50, 62, 78,
  20, 24, 32,
  50, 62, 78,
  20, 24, 32,
  50, 62, 78,
  20, 24, 32,
  50, 62, 78
]);

trans_cost = [1.16, 3.13, 3.65, 1.28, 3.59, 1.05, 2.68, 2.96, 2.73, 2.45, 4.57, 2.84, 1.61, 1.70, 3.09, 3.60, 3.46, 4.68, 4.10, 2.86, 4.30, 3.37, 2.29, 1.98, 4.74, 2.12, 2.80, 4, 3.28, 3.67, 2.35, 2.98, 2.30, 2.95, 2.42, 2.03, 2.12, 3.38, 4.52, 3.22, 3.07, 1.76];
